! PBE0
! opt anfreq
* xyzfile 0 1 serine.xyz *